c no description
p cnf 631 1823
65 0
-66 0
-67 0
-68 0
-69 0
-70 0
71 0
-72 0
73 0
-74 0
-75 0
-76 0
-77 0
-78 0
-79 0
-80 0
-81 0
-82 0
-83 0
-84 0
-85 0
-86 0
-87 0
-88 0
-89 0
-90 0
-91 0
-92 0
-93 0
-94 0
-95 0
-96 0
-97 0
-98 0
-99 0
-100 0
-101 0
-102 0
-103 0
-104 0
-105 0
-106 0
-107 0
-108 0
-109 0
-110 0
-111 0
-112 0
-113 0
-114 0
-115 0
-116 0
-117 0
-118 0
-119 0
-120 0
-121 0
-122 0
-123 0
-124 0
-125 0
-126 0
-127 0
-128 0
-129 -64 -128 0
-129 64 128 0
129 64 -128 0
129 -64 128 0
-130 -63 -127 0
-130 63 127 0
130 63 -127 0
130 -63 127 0
-131 -62 -126 0
-131 62 126 0
131 62 -126 0
131 -62 126 0
-132 -61 -125 0
-132 61 125 0
132 61 -125 0
132 -61 125 0
-133 -60 -124 0
-133 60 124 0
133 60 -124 0
133 -60 124 0
-134 -59 -123 0
-134 59 123 0
134 59 -123 0
134 -59 123 0
-135 -58 -122 0
-135 58 122 0
135 58 -122 0
135 -58 122 0
-136 -57 -121 0
-136 57 121 0
136 57 -121 0
136 -57 121 0
-137 -56 -120 0
-137 56 120 0
137 56 -120 0
137 -56 120 0
-138 -55 -119 0
-138 55 119 0
138 55 -119 0
138 -55 119 0
-139 -54 -118 0
-139 54 118 0
139 54 -118 0
139 -54 118 0
-140 -53 -117 0
-140 53 117 0
140 53 -117 0
140 -53 117 0
-141 -52 -116 0
-141 52 116 0
141 52 -116 0
141 -52 116 0
-142 -51 -115 0
-142 51 115 0
142 51 -115 0
142 -51 115 0
-143 -50 -114 0
-143 50 114 0
143 50 -114 0
143 -50 114 0
-144 -49 -113 0
-144 49 113 0
144 49 -113 0
144 -49 113 0
-145 -48 -112 0
-145 48 112 0
145 48 -112 0
145 -48 112 0
-146 -47 -111 0
-146 47 111 0
146 47 -111 0
146 -47 111 0
-147 -46 -110 0
-147 46 110 0
147 46 -110 0
147 -46 110 0
-148 -45 -109 0
-148 45 109 0
148 45 -109 0
148 -45 109 0
-149 -44 -108 0
-149 44 108 0
149 44 -108 0
149 -44 108 0
-150 -43 -107 0
-150 43 107 0
150 43 -107 0
150 -43 107 0
-151 -42 -106 0
-151 42 106 0
151 42 -106 0
151 -42 106 0
-152 -41 -105 0
-152 41 105 0
152 41 -105 0
152 -41 105 0
-153 -40 -104 0
-153 40 104 0
153 40 -104 0
153 -40 104 0
-154 -39 -103 0
-154 39 103 0
154 39 -103 0
154 -39 103 0
-155 -38 -102 0
-155 38 102 0
155 38 -102 0
155 -38 102 0
-156 -37 -101 0
-156 37 101 0
156 37 -101 0
156 -37 101 0
-157 -36 -100 0
-157 36 100 0
157 36 -100 0
157 -36 100 0
-158 -35 -99 0
-158 35 99 0
158 35 -99 0
158 -35 99 0
-159 -34 -98 0
-159 34 98 0
159 34 -98 0
159 -34 98 0
-160 -33 -97 0
-160 33 97 0
160 33 -97 0
160 -33 97 0
-161 -32 -96 0
-161 32 96 0
161 32 -96 0
161 -32 96 0
-162 -31 -95 0
-162 31 95 0
162 31 -95 0
162 -31 95 0
-163 -30 -94 0
-163 30 94 0
163 30 -94 0
163 -30 94 0
-164 -29 -93 0
-164 29 93 0
164 29 -93 0
164 -29 93 0
-165 -28 -92 0
-165 28 92 0
165 28 -92 0
165 -28 92 0
-166 -27 -91 0
-166 27 91 0
166 27 -91 0
166 -27 91 0
-167 -26 -90 0
-167 26 90 0
167 26 -90 0
167 -26 90 0
-168 -25 -89 0
-168 25 89 0
168 25 -89 0
168 -25 89 0
-169 -24 -88 0
-169 24 88 0
169 24 -88 0
169 -24 88 0
-170 -23 -87 0
-170 23 87 0
170 23 -87 0
170 -23 87 0
-171 -22 -86 0
-171 22 86 0
171 22 -86 0
171 -22 86 0
-172 -21 -85 0
-172 21 85 0
172 21 -85 0
172 -21 85 0
-173 -20 -84 0
-173 20 84 0
173 20 -84 0
173 -20 84 0
-174 -19 -83 0
-174 19 83 0
174 19 -83 0
174 -19 83 0
-175 -18 -82 0
-175 18 82 0
175 18 -82 0
175 -18 82 0
-176 -17 -81 0
-176 17 81 0
176 17 -81 0
176 -17 81 0
-177 -16 -80 0
-177 16 80 0
177 16 -80 0
177 -16 80 0
-178 -15 -79 0
-178 15 79 0
178 15 -79 0
178 -15 79 0
-179 -14 -78 0
-179 14 78 0
179 14 -78 0
179 -14 78 0
-180 -13 -77 0
-180 13 77 0
180 13 -77 0
180 -13 77 0
-181 -12 -76 0
-181 12 76 0
181 12 -76 0
181 -12 76 0
-182 -11 -75 0
-182 11 75 0
182 11 -75 0
182 -11 75 0
-183 -10 -74 0
-183 10 74 0
183 10 -74 0
183 -10 74 0
-184 -9 -73 0
-184 9 73 0
184 9 -73 0
184 -9 73 0
-185 -8 -72 0
-185 8 72 0
185 8 -72 0
185 -8 72 0
-186 -7 -71 0
-186 7 71 0
186 7 -71 0
186 -7 71 0
-187 -6 -70 0
-187 6 70 0
187 6 -70 0
187 -6 70 0
-188 -5 -69 0
-188 5 69 0
188 5 -69 0
188 -5 69 0
-189 -4 -68 0
-189 4 68 0
189 4 -68 0
189 -4 68 0
-190 -3 -67 0
-190 3 67 0
190 3 -67 0
190 -3 67 0
-191 -2 -66 0
-191 2 66 0
191 2 -66 0
191 -2 66 0
-192 1 0
-192 65 0
192 -1 -65 0
-193 -66 -192 0
-193 66 192 0
193 66 -192 0
193 -66 192 0
-194 -2 -192 0
-194 2 192 0
194 2 -192 0
194 -2 192 0
-195 194 0
-195 193 0
195 -194 -193 0
-196 -195 -192 0
-196 195 192 0
196 195 -192 0
196 -195 192 0
-197 -67 -196 0
-197 67 196 0
197 67 -196 0
197 -67 196 0
-198 -3 -196 0
-198 3 196 0
198 3 -196 0
198 -3 196 0
-199 198 0
-199 197 0
199 -198 -197 0
-200 -199 -196 0
-200 199 196 0
200 199 -196 0
200 -199 196 0
-201 -68 -200 0
-201 68 200 0
201 68 -200 0
201 -68 200 0
-202 -4 -200 0
-202 4 200 0
202 4 -200 0
202 -4 200 0
-203 202 0
-203 201 0
203 -202 -201 0
-204 -203 -200 0
-204 203 200 0
204 203 -200 0
204 -203 200 0
-205 -69 -204 0
-205 69 204 0
205 69 -204 0
205 -69 204 0
-206 -5 -204 0
-206 5 204 0
206 5 -204 0
206 -5 204 0
-207 206 0
-207 205 0
207 -206 -205 0
-208 -207 -204 0
-208 207 204 0
208 207 -204 0
208 -207 204 0
-209 -70 -208 0
-209 70 208 0
209 70 -208 0
209 -70 208 0
-210 -6 -208 0
-210 6 208 0
210 6 -208 0
210 -6 208 0
-211 210 0
-211 209 0
211 -210 -209 0
-212 -211 -208 0
-212 211 208 0
212 211 -208 0
212 -211 208 0
-213 -71 -212 0
-213 71 212 0
213 71 -212 0
213 -71 212 0
-214 -7 -212 0
-214 7 212 0
214 7 -212 0
214 -7 212 0
-215 214 0
-215 213 0
215 -214 -213 0
-216 -215 -212 0
-216 215 212 0
216 215 -212 0
216 -215 212 0
-217 -72 -216 0
-217 72 216 0
217 72 -216 0
217 -72 216 0
-218 -8 -216 0
-218 8 216 0
218 8 -216 0
218 -8 216 0
-219 218 0
-219 217 0
219 -218 -217 0
-220 -219 -216 0
-220 219 216 0
220 219 -216 0
220 -219 216 0
-221 -73 -220 0
-221 73 220 0
221 73 -220 0
221 -73 220 0
-222 -9 -220 0
-222 9 220 0
222 9 -220 0
222 -9 220 0
-223 222 0
-223 221 0
223 -222 -221 0
-224 -223 -220 0
-224 223 220 0
224 223 -220 0
224 -223 220 0
-225 -74 -224 0
-225 74 224 0
225 74 -224 0
225 -74 224 0
-226 -10 -224 0
-226 10 224 0
226 10 -224 0
226 -10 224 0
-227 226 0
-227 225 0
227 -226 -225 0
-228 -227 -224 0
-228 227 224 0
228 227 -224 0
228 -227 224 0
-229 -75 -228 0
-229 75 228 0
229 75 -228 0
229 -75 228 0
-230 -11 -228 0
-230 11 228 0
230 11 -228 0
230 -11 228 0
-231 230 0
-231 229 0
231 -230 -229 0
-232 -231 -228 0
-232 231 228 0
232 231 -228 0
232 -231 228 0
-233 -76 -232 0
-233 76 232 0
233 76 -232 0
233 -76 232 0
-234 -12 -232 0
-234 12 232 0
234 12 -232 0
234 -12 232 0
-235 234 0
-235 233 0
235 -234 -233 0
-236 -235 -232 0
-236 235 232 0
236 235 -232 0
236 -235 232 0
-237 -77 -236 0
-237 77 236 0
237 77 -236 0
237 -77 236 0
-238 -13 -236 0
-238 13 236 0
238 13 -236 0
238 -13 236 0
-239 238 0
-239 237 0
239 -238 -237 0
-240 -239 -236 0
-240 239 236 0
240 239 -236 0
240 -239 236 0
-241 -78 -240 0
-241 78 240 0
241 78 -240 0
241 -78 240 0
-242 -14 -240 0
-242 14 240 0
242 14 -240 0
242 -14 240 0
-243 242 0
-243 241 0
243 -242 -241 0
-244 -243 -240 0
-244 243 240 0
244 243 -240 0
244 -243 240 0
-245 -79 -244 0
-245 79 244 0
245 79 -244 0
245 -79 244 0
-246 -15 -244 0
-246 15 244 0
246 15 -244 0
246 -15 244 0
-247 246 0
-247 245 0
247 -246 -245 0
-248 -247 -244 0
-248 247 244 0
248 247 -244 0
248 -247 244 0
-249 -80 -248 0
-249 80 248 0
249 80 -248 0
249 -80 248 0
-250 -16 -248 0
-250 16 248 0
250 16 -248 0
250 -16 248 0
-251 250 0
-251 249 0
251 -250 -249 0
-252 -251 -248 0
-252 251 248 0
252 251 -248 0
252 -251 248 0
-253 -81 -252 0
-253 81 252 0
253 81 -252 0
253 -81 252 0
-254 -17 -252 0
-254 17 252 0
254 17 -252 0
254 -17 252 0
-255 254 0
-255 253 0
255 -254 -253 0
-256 -255 -252 0
-256 255 252 0
256 255 -252 0
256 -255 252 0
-257 -82 -256 0
-257 82 256 0
257 82 -256 0
257 -82 256 0
-258 -18 -256 0
-258 18 256 0
258 18 -256 0
258 -18 256 0
-259 258 0
-259 257 0
259 -258 -257 0
-260 -259 -256 0
-260 259 256 0
260 259 -256 0
260 -259 256 0
-261 -83 -260 0
-261 83 260 0
261 83 -260 0
261 -83 260 0
-262 -19 -260 0
-262 19 260 0
262 19 -260 0
262 -19 260 0
-263 262 0
-263 261 0
263 -262 -261 0
-264 -263 -260 0
-264 263 260 0
264 263 -260 0
264 -263 260 0
-265 -84 -264 0
-265 84 264 0
265 84 -264 0
265 -84 264 0
-266 -20 -264 0
-266 20 264 0
266 20 -264 0
266 -20 264 0
-267 266 0
-267 265 0
267 -266 -265 0
-268 -267 -264 0
-268 267 264 0
268 267 -264 0
268 -267 264 0
-269 -85 -268 0
-269 85 268 0
269 85 -268 0
269 -85 268 0
-270 -21 -268 0
-270 21 268 0
270 21 -268 0
270 -21 268 0
-271 270 0
-271 269 0
271 -270 -269 0
-272 -271 -268 0
-272 271 268 0
272 271 -268 0
272 -271 268 0
-273 -86 -272 0
-273 86 272 0
273 86 -272 0
273 -86 272 0
-274 -22 -272 0
-274 22 272 0
274 22 -272 0
274 -22 272 0
-275 274 0
-275 273 0
275 -274 -273 0
-276 -275 -272 0
-276 275 272 0
276 275 -272 0
276 -275 272 0
-277 -87 -276 0
-277 87 276 0
277 87 -276 0
277 -87 276 0
-278 -23 -276 0
-278 23 276 0
278 23 -276 0
278 -23 276 0
-279 278 0
-279 277 0
279 -278 -277 0
-280 -279 -276 0
-280 279 276 0
280 279 -276 0
280 -279 276 0
-281 -88 -280 0
-281 88 280 0
281 88 -280 0
281 -88 280 0
-282 -24 -280 0
-282 24 280 0
282 24 -280 0
282 -24 280 0
-283 282 0
-283 281 0
283 -282 -281 0
-284 -283 -280 0
-284 283 280 0
284 283 -280 0
284 -283 280 0
-285 -89 -284 0
-285 89 284 0
285 89 -284 0
285 -89 284 0
-286 -25 -284 0
-286 25 284 0
286 25 -284 0
286 -25 284 0
-287 286 0
-287 285 0
287 -286 -285 0
-288 -287 -284 0
-288 287 284 0
288 287 -284 0
288 -287 284 0
-289 -90 -288 0
-289 90 288 0
289 90 -288 0
289 -90 288 0
-290 -26 -288 0
-290 26 288 0
290 26 -288 0
290 -26 288 0
-291 290 0
-291 289 0
291 -290 -289 0
-292 -291 -288 0
-292 291 288 0
292 291 -288 0
292 -291 288 0
-293 -91 -292 0
-293 91 292 0
293 91 -292 0
293 -91 292 0
-294 -27 -292 0
-294 27 292 0
294 27 -292 0
294 -27 292 0
-295 294 0
-295 293 0
295 -294 -293 0
-296 -295 -292 0
-296 295 292 0
296 295 -292 0
296 -295 292 0
-297 -92 -296 0
-297 92 296 0
297 92 -296 0
297 -92 296 0
-298 -28 -296 0
-298 28 296 0
298 28 -296 0
298 -28 296 0
-299 298 0
-299 297 0
299 -298 -297 0
-300 -299 -296 0
-300 299 296 0
300 299 -296 0
300 -299 296 0
-301 -93 -300 0
-301 93 300 0
301 93 -300 0
301 -93 300 0
-302 -29 -300 0
-302 29 300 0
302 29 -300 0
302 -29 300 0
-303 302 0
-303 301 0
303 -302 -301 0
-304 -303 -300 0
-304 303 300 0
304 303 -300 0
304 -303 300 0
-305 -94 -304 0
-305 94 304 0
305 94 -304 0
305 -94 304 0
-306 -30 -304 0
-306 30 304 0
306 30 -304 0
306 -30 304 0
-307 306 0
-307 305 0
307 -306 -305 0
-308 -307 -304 0
-308 307 304 0
308 307 -304 0
308 -307 304 0
-309 -95 -308 0
-309 95 308 0
309 95 -308 0
309 -95 308 0
-310 -31 -308 0
-310 31 308 0
310 31 -308 0
310 -31 308 0
-311 310 0
-311 309 0
311 -310 -309 0
-312 -311 -308 0
-312 311 308 0
312 311 -308 0
312 -311 308 0
-313 -32 -312 0
-313 32 312 0
313 32 -312 0
313 -32 312 0
-314 -96 -312 0
-314 96 312 0
314 96 -312 0
314 -96 312 0
-315 313 0
-315 314 0
315 -313 -314 0
-316 -315 -312 0
-316 315 312 0
316 315 -312 0
316 -315 312 0
-317 -97 -316 0
-317 97 316 0
317 97 -316 0
317 -97 316 0
-318 -33 -316 0
-318 33 316 0
318 33 -316 0
318 -33 316 0
-319 318 0
-319 317 0
319 -318 -317 0
-320 -319 -316 0
-320 319 316 0
320 319 -316 0
320 -319 316 0
-321 -98 -320 0
-321 98 320 0
321 98 -320 0
321 -98 320 0
-322 -34 -320 0
-322 34 320 0
322 34 -320 0
322 -34 320 0
-323 322 0
-323 321 0
323 -322 -321 0
-324 -323 -320 0
-324 323 320 0
324 323 -320 0
324 -323 320 0
-325 -99 -324 0
-325 99 324 0
325 99 -324 0
325 -99 324 0
-326 -35 -324 0
-326 35 324 0
326 35 -324 0
326 -35 324 0
-327 326 0
-327 325 0
327 -326 -325 0
-328 -327 -324 0
-328 327 324 0
328 327 -324 0
328 -327 324 0
-329 -36 -328 0
-329 36 328 0
329 36 -328 0
329 -36 328 0
-330 -100 -328 0
-330 100 328 0
330 100 -328 0
330 -100 328 0
-331 329 0
-331 330 0
331 -329 -330 0
-332 -331 -328 0
-332 331 328 0
332 331 -328 0
332 -331 328 0
-333 -101 -332 0
-333 101 332 0
333 101 -332 0
333 -101 332 0
-334 -37 -332 0
-334 37 332 0
334 37 -332 0
334 -37 332 0
-335 334 0
-335 333 0
335 -334 -333 0
-336 -335 -332 0
-336 335 332 0
336 335 -332 0
336 -335 332 0
-337 -102 -336 0
-337 102 336 0
337 102 -336 0
337 -102 336 0
-338 -38 -336 0
-338 38 336 0
338 38 -336 0
338 -38 336 0
-339 338 0
-339 337 0
339 -338 -337 0
-340 -339 -336 0
-340 339 336 0
340 339 -336 0
340 -339 336 0
-341 -103 -340 0
-341 103 340 0
341 103 -340 0
341 -103 340 0
-342 -39 -340 0
-342 39 340 0
342 39 -340 0
342 -39 340 0
-343 342 0
-343 341 0
343 -342 -341 0
-344 -343 -340 0
-344 343 340 0
344 343 -340 0
344 -343 340 0
-345 -40 -344 0
-345 40 344 0
345 40 -344 0
345 -40 344 0
-346 -104 -344 0
-346 104 344 0
346 104 -344 0
346 -104 344 0
-347 345 0
-347 346 0
347 -345 -346 0
-348 -347 -344 0
-348 347 344 0
348 347 -344 0
348 -347 344 0
-349 -105 -348 0
-349 105 348 0
349 105 -348 0
349 -105 348 0
-350 -41 -348 0
-350 41 348 0
350 41 -348 0
350 -41 348 0
-351 350 0
-351 349 0
351 -350 -349 0
-352 -351 -348 0
-352 351 348 0
352 351 -348 0
352 -351 348 0
-353 -106 -352 0
-353 106 352 0
353 106 -352 0
353 -106 352 0
-354 -42 -352 0
-354 42 352 0
354 42 -352 0
354 -42 352 0
-355 354 0
-355 353 0
355 -354 -353 0
-356 -355 -352 0
-356 355 352 0
356 355 -352 0
356 -355 352 0
-357 -107 -356 0
-357 107 356 0
357 107 -356 0
357 -107 356 0
-358 -43 -356 0
-358 43 356 0
358 43 -356 0
358 -43 356 0
-359 358 0
-359 357 0
359 -358 -357 0
-360 -359 -356 0
-360 359 356 0
360 359 -356 0
360 -359 356 0
-361 -44 -360 0
-361 44 360 0
361 44 -360 0
361 -44 360 0
-362 -108 -360 0
-362 108 360 0
362 108 -360 0
362 -108 360 0
-363 361 0
-363 362 0
363 -361 -362 0
-364 -363 -360 0
-364 363 360 0
364 363 -360 0
364 -363 360 0
-365 -109 -364 0
-365 109 364 0
365 109 -364 0
365 -109 364 0
-366 -45 -364 0
-366 45 364 0
366 45 -364 0
366 -45 364 0
-367 366 0
-367 365 0
367 -366 -365 0
-368 -367 -364 0
-368 367 364 0
368 367 -364 0
368 -367 364 0
-369 -110 -368 0
-369 110 368 0
369 110 -368 0
369 -110 368 0
-370 -46 -368 0
-370 46 368 0
370 46 -368 0
370 -46 368 0
-371 370 0
-371 369 0
371 -370 -369 0
-372 -371 -368 0
-372 371 368 0
372 371 -368 0
372 -371 368 0
-373 -111 -372 0
-373 111 372 0
373 111 -372 0
373 -111 372 0
-374 -47 -372 0
-374 47 372 0
374 47 -372 0
374 -47 372 0
-375 374 0
-375 373 0
375 -374 -373 0
-376 -375 -372 0
-376 375 372 0
376 375 -372 0
376 -375 372 0
-377 -48 -376 0
-377 48 376 0
377 48 -376 0
377 -48 376 0
-378 -112 -376 0
-378 112 376 0
378 112 -376 0
378 -112 376 0
-379 377 0
-379 378 0
379 -377 -378 0
-380 -379 -376 0
-380 379 376 0
380 379 -376 0
380 -379 376 0
-381 -113 -380 0
-381 113 380 0
381 113 -380 0
381 -113 380 0
-382 -49 -380 0
-382 49 380 0
382 49 -380 0
382 -49 380 0
-383 382 0
-383 381 0
383 -382 -381 0
-384 -383 -380 0
-384 383 380 0
384 383 -380 0
384 -383 380 0
-385 -114 -384 0
-385 114 384 0
385 114 -384 0
385 -114 384 0
-386 -50 -384 0
-386 50 384 0
386 50 -384 0
386 -50 384 0
-387 386 0
-387 385 0
387 -386 -385 0
-388 -387 -384 0
-388 387 384 0
388 387 -384 0
388 -387 384 0
-389 -115 -388 0
-389 115 388 0
389 115 -388 0
389 -115 388 0
-390 -51 -388 0
-390 51 388 0
390 51 -388 0
390 -51 388 0
-391 390 0
-391 389 0
391 -390 -389 0
-392 -391 -388 0
-392 391 388 0
392 391 -388 0
392 -391 388 0
-393 -116 -392 0
-393 116 392 0
393 116 -392 0
393 -116 392 0
-394 -52 -392 0
-394 52 392 0
394 52 -392 0
394 -52 392 0
-395 394 0
-395 393 0
395 -394 -393 0
-396 -395 -392 0
-396 395 392 0
396 395 -392 0
396 -395 392 0
-397 -117 -396 0
-397 117 396 0
397 117 -396 0
397 -117 396 0
-398 -53 -396 0
-398 53 396 0
398 53 -396 0
398 -53 396 0
-399 398 0
-399 397 0
399 -398 -397 0
-400 -399 -396 0
-400 399 396 0
400 399 -396 0
400 -399 396 0
-401 -118 -400 0
-401 118 400 0
401 118 -400 0
401 -118 400 0
-402 -54 -400 0
-402 54 400 0
402 54 -400 0
402 -54 400 0
-403 402 0
-403 401 0
403 -402 -401 0
-404 -403 -400 0
-404 403 400 0
404 403 -400 0
404 -403 400 0
-405 -119 -404 0
-405 119 404 0
405 119 -404 0
405 -119 404 0
-406 -55 -404 0
-406 55 404 0
406 55 -404 0
406 -55 404 0
-407 406 0
-407 405 0
407 -406 -405 0
-408 -407 -404 0
-408 407 404 0
408 407 -404 0
408 -407 404 0
-409 -120 -408 0
-409 120 408 0
409 120 -408 0
409 -120 408 0
-410 -56 -408 0
-410 56 408 0
410 56 -408 0
410 -56 408 0
-411 410 0
-411 409 0
411 -410 -409 0
-412 -411 -408 0
-412 411 408 0
412 411 -408 0
412 -411 408 0
-413 -121 -412 0
-413 121 412 0
413 121 -412 0
413 -121 412 0
-414 -57 -412 0
-414 57 412 0
414 57 -412 0
414 -57 412 0
-415 414 0
-415 413 0
415 -414 -413 0
-416 -415 -412 0
-416 415 412 0
416 415 -412 0
416 -415 412 0
-417 -122 -416 0
-417 122 416 0
417 122 -416 0
417 -122 416 0
-418 -58 -416 0
-418 58 416 0
418 58 -416 0
418 -58 416 0
-419 418 0
-419 417 0
419 -418 -417 0
-420 -419 -416 0
-420 419 416 0
420 419 -416 0
420 -419 416 0
-421 -123 -420 0
-421 123 420 0
421 123 -420 0
421 -123 420 0
-422 -59 -420 0
-422 59 420 0
422 59 -420 0
422 -59 420 0
-423 422 0
-423 421 0
423 -422 -421 0
-424 -423 -420 0
-424 423 420 0
424 423 -420 0
424 -423 420 0
-425 -124 -424 0
-425 124 424 0
425 124 -424 0
425 -124 424 0
-426 -60 -424 0
-426 60 424 0
426 60 -424 0
426 -60 424 0
-427 426 0
-427 425 0
427 -426 -425 0
-428 -427 -424 0
-428 427 424 0
428 427 -424 0
428 -427 424 0
-429 -61 -428 0
-429 61 428 0
429 61 -428 0
429 -61 428 0
-430 -125 -428 0
-430 125 428 0
430 125 -428 0
430 -125 428 0
-431 429 0
-431 430 0
431 -429 -430 0
-432 -431 -428 0
-432 431 428 0
432 431 -428 0
432 -431 428 0
-433 -126 -432 0
-433 126 432 0
433 126 -432 0
433 -126 432 0
-434 -62 -432 0
-434 62 432 0
434 62 -432 0
434 -62 432 0
-435 434 0
-435 433 0
435 -434 -433 0
-436 -435 -432 0
-436 435 432 0
436 435 -432 0
436 -435 432 0
-437 -127 -436 0
-437 127 436 0
437 127 -436 0
437 -127 436 0
-438 -63 -436 0
-438 63 436 0
438 63 -436 0
438 -63 436 0
-439 438 0
-439 437 0
439 -438 -437 0
-440 -439 -436 0
-440 439 436 0
440 439 -436 0
440 -439 436 0
-441 -1 -65 0
-441 1 65 0
441 1 -65 0
441 -1 65 0
-442 -191 -192 0
-442 191 192 0
442 191 -192 0
442 -191 192 0
-443 -190 -196 0
-443 190 196 0
443 190 -196 0
443 -190 196 0
-444 -189 -200 0
-444 189 200 0
444 189 -200 0
444 -189 200 0
-445 -188 -204 0
-445 188 204 0
445 188 -204 0
445 -188 204 0
-446 -187 -208 0
-446 187 208 0
446 187 -208 0
446 -187 208 0
-447 -186 -212 0
-447 186 212 0
447 186 -212 0
447 -186 212 0
-448 -185 -216 0
-448 185 216 0
448 185 -216 0
448 -185 216 0
-449 -184 -220 0
-449 184 220 0
449 184 -220 0
449 -184 220 0
-450 -183 -224 0
-450 183 224 0
450 183 -224 0
450 -183 224 0
-451 -182 -228 0
-451 182 228 0
451 182 -228 0
451 -182 228 0
-452 -181 -232 0
-452 181 232 0
452 181 -232 0
452 -181 232 0
-453 -180 -236 0
-453 180 236 0
453 180 -236 0
453 -180 236 0
-454 -179 -240 0
-454 179 240 0
454 179 -240 0
454 -179 240 0
-455 -178 -244 0
-455 178 244 0
455 178 -244 0
455 -178 244 0
-456 -177 -248 0
-456 177 248 0
456 177 -248 0
456 -177 248 0
-457 -176 -252 0
-457 176 252 0
457 176 -252 0
457 -176 252 0
-458 -175 -256 0
-458 175 256 0
458 175 -256 0
458 -175 256 0
-459 -174 -260 0
-459 174 260 0
459 174 -260 0
459 -174 260 0
-460 -173 -264 0
-460 173 264 0
460 173 -264 0
460 -173 264 0
-461 -172 -268 0
-461 172 268 0
461 172 -268 0
461 -172 268 0
-462 -171 -272 0
-462 171 272 0
462 171 -272 0
462 -171 272 0
-463 -170 -276 0
-463 170 276 0
463 170 -276 0
463 -170 276 0
-464 -169 -280 0
-464 169 280 0
464 169 -280 0
464 -169 280 0
-465 -168 -284 0
-465 168 284 0
465 168 -284 0
465 -168 284 0
-466 -167 -288 0
-466 167 288 0
466 167 -288 0
466 -167 288 0
-467 -166 -292 0
-467 166 292 0
467 166 -292 0
467 -166 292 0
-468 -165 -296 0
-468 165 296 0
468 165 -296 0
468 -165 296 0
-469 -164 -300 0
-469 164 300 0
469 164 -300 0
469 -164 300 0
-470 -163 -304 0
-470 163 304 0
470 163 -304 0
470 -163 304 0
-471 -162 -308 0
-471 162 308 0
471 162 -308 0
471 -162 308 0
-472 -161 -312 0
-472 161 312 0
472 161 -312 0
472 -161 312 0
-473 -160 -316 0
-473 160 316 0
473 160 -316 0
473 -160 316 0
-474 -159 -320 0
-474 159 320 0
474 159 -320 0
474 -159 320 0
-475 -158 -324 0
-475 158 324 0
475 158 -324 0
475 -158 324 0
-476 -157 -328 0
-476 157 328 0
476 157 -328 0
476 -157 328 0
-477 -156 -332 0
-477 156 332 0
477 156 -332 0
477 -156 332 0
-478 -155 -336 0
-478 155 336 0
478 155 -336 0
478 -155 336 0
-479 -154 -340 0
-479 154 340 0
479 154 -340 0
479 -154 340 0
-480 -153 -344 0
-480 153 344 0
480 153 -344 0
480 -153 344 0
-481 -152 -348 0
-481 152 348 0
481 152 -348 0
481 -152 348 0
-482 -151 -352 0
-482 151 352 0
482 151 -352 0
482 -151 352 0
-483 -150 -356 0
-483 150 356 0
483 150 -356 0
483 -150 356 0
-484 -149 -360 0
-484 149 360 0
484 149 -360 0
484 -149 360 0
-485 -148 -364 0
-485 148 364 0
485 148 -364 0
485 -148 364 0
-486 -147 -368 0
-486 147 368 0
486 147 -368 0
486 -147 368 0
-487 -146 -372 0
-487 146 372 0
487 146 -372 0
487 -146 372 0
-488 -145 -376 0
-488 145 376 0
488 145 -376 0
488 -145 376 0
-489 -144 -380 0
-489 144 380 0
489 144 -380 0
489 -144 380 0
-490 -143 -384 0
-490 143 384 0
490 143 -384 0
490 -143 384 0
-491 -142 -388 0
-491 142 388 0
491 142 -388 0
491 -142 388 0
-492 -141 -392 0
-492 141 392 0
492 141 -392 0
492 -141 392 0
-493 -140 -396 0
-493 140 396 0
493 140 -396 0
493 -140 396 0
-494 -139 -400 0
-494 139 400 0
494 139 -400 0
494 -139 400 0
-495 -138 -404 0
-495 138 404 0
495 138 -404 0
495 -138 404 0
-496 -137 -408 0
-496 137 408 0
496 137 -408 0
496 -137 408 0
-497 -136 -412 0
-497 136 412 0
497 136 -412 0
497 -136 412 0
-498 -135 -416 0
-498 135 416 0
498 135 -416 0
498 -135 416 0
-499 -134 -420 0
-499 134 420 0
499 134 -420 0
499 -134 420 0
-500 -133 -424 0
-500 133 424 0
500 133 -424 0
500 -133 424 0
-501 -132 -428 0
-501 132 428 0
501 132 -428 0
501 -132 428 0
-502 -131 -432 0
-502 131 432 0
502 131 -432 0
502 -131 432 0
-503 -130 -436 0
-503 130 436 0
503 130 -436 0
503 -130 436 0
-504 -129 -440 0
-504 129 440 0
504 129 -440 0
504 -129 440 0
505 441 0
-505 -441 0
506 442 0
-506 -442 0
507 -443 0
-507 443 0
508 -444 0
-508 444 0
509 -445 0
-509 445 0
510 -446 0
-510 446 0
511 447 0
-511 -447 0
512 -448 0
-512 448 0
513 -449 0
-513 449 0
514 450 0
-514 -450 0
515 451 0
-515 -451 0
516 452 0
-516 -452 0
517 453 0
-517 -453 0
518 454 0
-518 -454 0
519 455 0
-519 -455 0
520 456 0
-520 -456 0
521 457 0
-521 -457 0
522 458 0
-522 -458 0
523 459 0
-523 -459 0
524 460 0
-524 -460 0
525 461 0
-525 -461 0
526 462 0
-526 -462 0
527 463 0
-527 -463 0
528 464 0
-528 -464 0
529 465 0
-529 -465 0
530 466 0
-530 -466 0
531 467 0
-531 -467 0
532 468 0
-532 -468 0
533 469 0
-533 -469 0
534 470 0
-534 -470 0
535 471 0
-535 -471 0
536 472 0
-536 -472 0
537 473 0
-537 -473 0
538 474 0
-538 -474 0
539 475 0
-539 -475 0
540 476 0
-540 -476 0
541 477 0
-541 -477 0
542 478 0
-542 -478 0
543 479 0
-543 -479 0
544 480 0
-544 -480 0
545 481 0
-545 -481 0
546 482 0
-546 -482 0
547 483 0
-547 -483 0
548 484 0
-548 -484 0
549 485 0
-549 -485 0
550 486 0
-550 -486 0
551 487 0
-551 -487 0
552 488 0
-552 -488 0
553 489 0
-553 -489 0
554 490 0
-554 -490 0
555 491 0
-555 -491 0
556 492 0
-556 -492 0
557 493 0
-557 -493 0
558 494 0
-558 -494 0
559 495 0
-559 -495 0
560 496 0
-560 -496 0
561 497 0
-561 -497 0
562 498 0
-562 -498 0
563 499 0
-563 -499 0
564 500 0
-564 -500 0
565 501 0
-565 -501 0
566 502 0
-566 -502 0
567 503 0
-567 -503 0
568 504 0
-568 -504 0
-569 505 0
-569 568 0
569 -505 -568 0
-570 506 0
-570 569 0
570 -506 -569 0
-571 507 0
-571 570 0
571 -507 -570 0
-572 508 0
-572 571 0
572 -508 -571 0
-573 509 0
-573 572 0
573 -509 -572 0
-574 510 0
-574 573 0
574 -510 -573 0
-575 511 0
-575 574 0
575 -511 -574 0
-576 512 0
-576 575 0
576 -512 -575 0
-577 513 0
-577 576 0
577 -513 -576 0
-578 514 0
-578 577 0
578 -514 -577 0
-579 515 0
-579 578 0
579 -515 -578 0
-580 516 0
-580 579 0
580 -516 -579 0
-581 517 0
-581 580 0
581 -517 -580 0
-582 518 0
-582 581 0
582 -518 -581 0
-583 519 0
-583 582 0
583 -519 -582 0
-584 520 0
-584 583 0
584 -520 -583 0
-585 521 0
-585 584 0
585 -521 -584 0
-586 522 0
-586 585 0
586 -522 -585 0
-587 523 0
-587 586 0
587 -523 -586 0
-588 524 0
-588 587 0
588 -524 -587 0
-589 525 0
-589 588 0
589 -525 -588 0
-590 526 0
-590 589 0
590 -526 -589 0
-591 527 0
-591 590 0
591 -527 -590 0
-592 528 0
-592 591 0
592 -528 -591 0
-593 529 0
-593 592 0
593 -529 -592 0
-594 530 0
-594 593 0
594 -530 -593 0
-595 531 0
-595 594 0
595 -531 -594 0
-596 532 0
-596 595 0
596 -532 -595 0
-597 533 0
-597 596 0
597 -533 -596 0
-598 534 0
-598 597 0
598 -534 -597 0
-599 535 0
-599 598 0
599 -535 -598 0
-600 536 0
-600 599 0
600 -536 -599 0
-601 537 0
-601 600 0
601 -537 -600 0
-602 538 0
-602 601 0
602 -538 -601 0
-603 539 0
-603 602 0
603 -539 -602 0
-604 540 0
-604 603 0
604 -540 -603 0
-605 541 0
-605 604 0
605 -541 -604 0
-606 542 0
-606 605 0
606 -542 -605 0
-607 543 0
-607 606 0
607 -543 -606 0
-608 544 0
-608 607 0
608 -544 -607 0
-609 545 0
-609 608 0
609 -545 -608 0
-610 546 0
-610 609 0
610 -546 -609 0
-611 547 0
-611 610 0
611 -547 -610 0
-612 548 0
-612 611 0
612 -548 -611 0
-613 549 0
-613 612 0
613 -549 -612 0
-614 550 0
-614 613 0
614 -550 -613 0
-615 551 0
-615 614 0
615 -551 -614 0
-616 552 0
-616 615 0
616 -552 -615 0
-617 553 0
-617 616 0
617 -553 -616 0
-618 554 0
-618 617 0
618 -554 -617 0
-619 555 0
-619 618 0
619 -555 -618 0
-620 556 0
-620 619 0
620 -556 -619 0
-621 557 0
-621 620 0
621 -557 -620 0
-622 558 0
-622 621 0
622 -558 -621 0
-623 559 0
-623 622 0
623 -559 -622 0
-624 560 0
-624 623 0
624 -560 -623 0
-625 561 0
-625 624 0
625 -561 -624 0
-626 562 0
-626 625 0
626 -562 -625 0
-627 563 0
-627 626 0
627 -563 -626 0
-628 564 0
-628 627 0
628 -564 -627 0
-629 565 0
-629 628 0
629 -565 -628 0
-630 566 0
-630 629 0
630 -566 -629 0
-631 567 0
-631 630 0
631 -567 -630 0
631 0
